NAME : MM35_depots
COMMENT : Instance 35 in MD algorithm. Coordinates of depots and vhcl speeds given.
TYPE : TSP
DIMENSION : 10
EDGE_WEIGHT_TYPE : ATT
NODE_COORD_SECTION
151 52.165 14.9865 1
152 52.165 14.9865 1
153 9.673 65.9605 1
154 9.673 65.9605 1
155 81.8149 51.8595 1
156 81.8149 51.8595 1
157 81.7547 97.2975 1
158 81.7547 97.2975 1
159 72.244 64.8991 1
160 72.244 64.8991 1
EOF
